c colouring generated by benchmark framework
p edge 261 430
v 1 0
v 2 0
v 3 0
v 4 0
v 5 0
v 6 0
v 7 1
v 8 2
v 9 1
v 10 1
v 11 1
v 12 1
v 13 2
v 14 0
v 15 2
v 16 1
v 17 0
v 18 0
v 19 1
v 20 0
v 21 0
v 22 0
v 23 2
v 24 0
v 25 1
v 26 1
v 27 1
v 28 2
v 29 2
v 30 2
v 31 1
v 32 1
v 33 1
v 34 0
v 35 2
v 36 2
v 37 2
v 38 0
v 39 1
v 40 0
v 41 1
v 42 0
v 43 0
v 44 0
v 45 2
v 46 2
v 47 0
v 48 2
v 49 0
v 50 1
v 51 0
v 52 0
v 53 0
v 54 1
v 55 0
v 56 2
v 57 2
v 58 2
v 59 1
v 60 0
v 61 1
v 62 1
v 63 1
v 64 0
v 65 1
v 66 0
v 67 1
v 68 1
v 69 1
v 70 0
v 71 0
v 72 0
v 73 1
v 74 0
v 75 1
v 76 1
v 77 2
v 78 0
v 79 2
v 80 2
v 81 2
v 82 0
v 83 1
v 84 1
v 85 0
v 86 0
v 87 1
v 88 1
v 89 1
v 90 0
v 91 1
v 92 0
v 93 0
v 94 1
v 95 1
v 96 1
v 97 0
v 98 0
v 99 1
v 100 2
v 101 0
v 102 0
v 103 0
v 104 2
v 105 0
v 106 2
v 107 0
v 108 1
v 109 0
v 110 1
v 111 0
v 112 0
v 113 2
v 114 1
v 115 2
v 116 1
v 117 1
v 118 0
v 119 1
v 120 0
v 121 2
v 122 0
v 123 0
v 124 0
v 125 1
v 126 1
v 127 2
v 128 0
v 129 1
v 130 2
v 131 2
v 132 0
v 133 0
v 134 1
v 135 1
v 136 0
v 137 1
v 138 0
v 139 0
v 140 2
v 141 0
v 142 0
v 143 0
v 144 2
v 145 1
v 146 0
v 147 2
v 148 2
v 149 2
v 150 0
v 151 2
v 152 0
v 153 1
v 154 1
v 155 1
v 156 0
v 157 0
v 158 2
v 159 0
v 160 1
v 161 1
v 162 1
v 163 2
v 164 0
v 165 1
v 166 1
v 167 0
v 168 0
v 169 1
v 170 0
v 171 1
v 172 1
v 173 1
v 174 0
v 175 1
v 176 0
v 177 2
v 178 2
v 179 1
v 180 2
v 181 0
v 182 1
v 183 2
v 184 0
v 185 2
v 186 1
v 187 1
v 188 0
v 189 1
v 190 0
v 191 0
v 192 2
v 193 1
v 194 2
v 195 1
v 196 2
v 197 1
v 198 1
v 199 1
v 200 2
v 201 1
v 202 1
v 203 2
v 204 2
v 205 0
v 206 2
v 207 1
v 208 0
v 209 1
v 210 1
v 211 1
v 212 0
v 213 1
v 214 2
v 215 2
v 216 1
v 217 2
v 218 0
v 219 1
v 220 2
v 221 1
v 222 1
v 223 2
v 224 1
v 225 0
v 226 2
v 227 0
v 228 0
v 229 0
v 230 1
v 231 0
v 232 2
v 233 0
v 234 2
v 235 2
v 236 1
v 237 1
v 238 0
v 239 0
v 240 0
v 241 2
v 242 2
v 243 0
v 244 0
v 245 0
v 246 1
v 247 0
v 248 1
v 249 2
v 250 2
v 251 2
v 252 1
v 253 2
v 254 1
v 255 0
v 256 0
v 257 0
v 258 1
v 259 1
v 260 0
v 261 0
